c colouring generated by benchmark framework
p edge 450 9757
v 1 9
v 2 3
v 3 4
v 4 1
v 5 2
v 6 9
v 7 3
v 8 5
v 9 4
v 10 3
v 11 9
v 12 0
v 13 4
v 14 6
v 15 1
v 16 2
v 17 10
v 18 8
v 19 5
v 20 7
v 21 10
v 22 0
v 23 1
v 24 6
v 25 7
v 26 9
v 27 9
v 28 6
v 29 5
v 30 6
v 31 10
v 32 10
v 33 8
v 34 1
v 35 6
v 36 2
v 37 10
v 38 5
v 39 1
v 40 6
v 41 3
v 42 10
v 43 8
v 44 1
v 45 9
v 46 3
v 47 0
v 48 5
v 49 7
v 50 7
v 51 10
v 52 0
v 53 5
v 54 1
v 55 7
v 56 2
v 57 0
v 58 1
v 59 8
v 60 7
v 61 2
v 62 0
v 63 5
v 64 4
v 65 7
v 66 10
v 67 3
v 68 5
v 69 8
v 70 3
v 71 2
v 72 0
v 73 5
v 74 1
v 75 9
v 76 2
v 77 0
v 78 8
v 79 1
v 80 6
v 81 2
v 82 10
v 83 5
v 84 5
v 85 1
v 86 3
v 87 3
v 88 5
v 89 6
v 90 9
v 91 3
v 92 3
v 93 8
v 94 1
v 95 7
v 96 0
v 97 3
v 98 8
v 99 6
v 100 2
v 101 3
v 102 10
v 103 8
v 104 6
v 105 6
v 106 9
v 107 10
v 108 4
v 109 5
v 110 2
v 111 9
v 112 0
v 113 4
v 114 4
v 115 2
v 116 9
v 117 0
v 118 4
v 119 1
v 120 7
v 121 2
v 122 10
v 123 4
v 124 6
v 125 3
v 126 3
v 127 10
v 128 4
v 129 4
v 130 9
v 131 10
v 132 10
v 133 8
v 134 8
v 135 9
v 136 2
v 137 0
v 138 6
v 139 4
v 140 9
v 141 2
v 142 0
v 143 5
v 144 1
v 145 9
v 146 2
v 147 0
v 148 5
v 149 4
v 150 7
v 151 9
v 152 3
v 153 5
v 154 4
v 155 7
v 156 9
v 157 0
v 158 8
v 159 7
v 160 7
v 161 10
v 162 0
v 163 5
v 164 7
v 165 1
v 166 2
v 167 3
v 168 1
v 169 4
v 170 6
v 171 2
v 172 10
v 173 5
v 174 5
v 175 1
v 176 10
v 177 0
v 178 8
v 179 4
v 180 7
v 181 9
v 182 3
v 183 5
v 184 1
v 185 9
v 186 9
v 187 10
v 188 8
v 189 1
v 190 7
v 191 9
v 192 0
v 193 8
v 194 1
v 195 6
v 196 2
v 197 10
v 198 8
v 199 1
v 200 7
v 201 3
v 202 0
v 203 5
v 204 6
v 205 7
v 206 9
v 207 0
v 208 5
v 209 4
v 210 7
v 211 3
v 212 0
v 213 8
v 214 6
v 215 6
v 216 2
v 217 10
v 218 8
v 219 4
v 220 6
v 221 3
v 222 0
v 223 5
v 224 1
v 225 2
v 226 2
v 227 0
v 228 4
v 229 4
v 230 2
v 231 2
v 232 10
v 233 4
v 234 6
v 235 7
v 236 3
v 237 0
v 238 4
v 239 4
v 240 7
v 241 2
v 242 0
v 243 8
v 244 1
v 245 7
v 246 10
v 247 3
v 248 8
v 249 5
v 250 7
v 251 2
v 252 10
v 253 6
v 254 6
v 255 9
v 256 2
v 257 0
v 258 5
v 259 1
v 260 2
v 261 2
v 262 10
v 263 5
v 264 5
v 265 1
v 266 9
v 267 10
v 268 5
v 269 1
v 270 9
v 271 9
v 272 0
v 273 8
v 274 7
v 275 7
v 276 9
v 277 3
v 278 8
v 279 4
v 280 2
v 281 9
v 282 0
v 283 8
v 284 1
v 285 1
v 286 2
v 287 10
v 288 8
v 289 1
v 290 7
v 291 10
v 292 9
v 293 8
v 294 4
v 295 7
v 296 9
v 297 9
v 298 5
v 299 1
v 300 9
v 301 2
v 302 0
v 303 8
v 304 1
v 305 6
v 306 2
v 307 10
v 308 4
v 309 1
v 310 7
v 311 3
v 312 10
v 313 8
v 314 1
v 315 7
v 316 0
v 317 0
v 318 8
v 319 6
v 320 9
v 321 0
v 322 0
v 323 4
v 324 6
v 325 7
v 326 3
v 327 0
v 328 8
v 329 8
v 330 7
v 331 9
v 332 3
v 333 4
v 334 7
v 335 2
v 336 9
v 337 3
v 338 0
v 339 1
v 340 7
v 341 2
v 342 10
v 343 4
v 344 4
v 345 2
v 346 2
v 347 5
v 348 5
v 349 4
v 350 6
v 351 2
v 352 10
v 353 4
v 354 4
v 355 9
v 356 10
v 357 0
v 358 1
v 359 4
v 360 9
v 361 9
v 362 3
v 363 1
v 364 6
v 365 7
v 366 9
v 367 3
v 368 5
v 369 6
v 370 7
v 371 10
v 372 2
v 373 4
v 374 1
v 375 6
v 376 0
v 377 10
v 378 8
v 379 5
v 380 9
v 381 9
v 382 3
v 383 8
v 384 4
v 385 9
v 386 9
v 387 9
v 388 5
v 389 5
v 390 6
v 391 2
v 392 10
v 393 5
v 394 1
v 395 6
v 396 2
v 397 10
v 398 5
v 399 1
v 400 6
v 401 3
v 402 0
v 403 8
v 404 8
v 405 3
v 406 2
v 407 10
v 408 8
v 409 4
v 410 9
v 411 2
v 412 0
v 413 8
v 414 6
v 415 7
v 416 2
v 417 10
v 418 8
v 419 4
v 420 2
v 421 2
v 422 0
v 423 4
v 424 6
v 425 9
v 426 9
v 427 0
v 428 5
v 429 6
v 430 9
v 431 3
v 432 10
v 433 4
v 434 4
v 435 7
v 436 3
v 437 0
v 438 8
v 439 6
v 440 2
v 441 2
v 442 10
v 443 8
v 444 4
v 445 2
v 446 3
v 447 3
v 448 4
v 449 1
v 450 2
